
Gurobi 9.5.1 (linux64) logging started Tue Jul  5 13:16:29 2022

Set parameter LogFile to value "../results/logs/log_Gowalla_edges_20_20_2022_07_05_11_53.log"
Gurobi Optimizer version 9.5.1 build v9.5.1rc2 (linux64)
Thread count: 8 physical cores, 8 logical processors, using up to 8 threads
Optimize a model with 40913 rows, 393182 columns and 995489 nonzeros
Model fingerprint: 0xca1f14bb
Coefficient statistics:
  Matrix range     [1e+00, 2e+01]
  Objective range  [1e+00, 1e+00]
  Bounds range     [1e+00, 1e+00]
  RHS range        [1e+00, 2e+01]

Concurrent LP optimizer: primal simplex, dual simplex, and barrier
Showing barrier log only...

Presolve removed 227 rows and 325702 columns
Presolve time: 0.49s
Presolved: 40686 rows, 67480 columns, 465019 nonzeros

Ordering time: 0.96s

Barrier statistics:
 AA' NZ     : 8.640e+05
 Factor NZ  : 1.744e+07 (roughly 200 MB of memory)
 Factor Ops : 3.940e+10 (less than 1 second per iteration)
 Threads    : 6

                  Objective                Residual
Iter       Primal          Dual         Primal    Dual     Compl     Time
   0   1.65502176e+04  1.87125227e+04  8.73e+04 2.50e-01  1.14e+00     2s
   1   1.73296102e+04  2.16170496e+04  3.69e+04 2.86e-01  5.18e-01     2s
   2   1.88300776e+04  2.28586979e+04  1.90e+04 1.63e-01  2.80e-01     2s
   3   1.71102654e+04  2.18450251e+04  3.59e+03 1.60e-02  6.78e-02     2s
   4   1.69786106e+04  1.90381078e+04  1.84e+03 7.49e-03  3.45e-02     3s
   5   1.68529371e+04  1.77338741e+04  1.05e+03 4.23e-03  2.00e-02     3s
   6   1.66513429e+04  1.70427155e+04  6.04e+02 2.64e-03  1.20e-02     3s
   7   1.64545201e+04  1.66448549e+04  3.49e+02 1.76e-03  7.33e-03     4s
   8   1.63311783e+04  1.64091976e+04  2.35e+02 1.28e-03  5.12e-03     4s
   9   1.62318621e+04  1.62611816e+04  1.71e+02 9.97e-04  3.94e-03     5s
  10   1.61522891e+04  1.61429315e+04  1.28e+02 7.80e-04  3.02e-03     5s
  11   1.61045592e+04  1.60997454e+04  1.06e+02 6.98e-04  2.62e-03     6s
  12   1.60590929e+04  1.60565585e+04  8.67e+01 6.20e-04  2.25e-03     6s
  13   1.60483427e+04  1.60322812e+04  8.27e+01 5.77e-04  2.12e-03     6s
  14   1.60346075e+04  1.60192645e+04  7.78e+01 5.47e-04  2.01e-03     6s
  15   1.60060255e+04  1.60001328e+04  6.73e+01 5.15e-04  1.83e-03     7s
  16   1.59897189e+04  1.59835194e+04  6.17e+01 4.84e-04  1.72e-03     7s
  17   1.59821440e+04  1.59615088e+04  5.98e+01 4.48e-04  1.64e-03     7s
  18   1.59636895e+04  1.59479653e+04  5.41e+01 4.30e-04  1.54e-03     7s
  19   1.59560048e+04  1.59400447e+04  5.18e+01 4.19e-04  1.49e-03     8s
  20   1.59454206e+04  1.59170462e+04  4.88e+01 3.86e-04  1.37e-03     8s
  21   1.59362938e+04  1.59005746e+04  4.63e+01 3.50e-04  1.26e-03     8s
  22   1.59091656e+04  1.58700658e+04  3.88e+01 3.06e-04  1.07e-03     8s
  23   1.58920190e+04  1.58548395e+04  3.46e+01 2.79e-04  9.70e-04     9s
  24   1.58851045e+04  1.58385940e+04  3.30e+01 2.58e-04  9.00e-04     9s
  25   1.58825055e+04  1.58276507e+04  3.24e+01 2.44e-04  8.53e-04     9s
  26   1.58795298e+04  1.58222293e+04  3.18e+01 2.29e-04  8.12e-04     9s
  27   1.58619357e+04  1.58106137e+04  2.78e+01 2.15e-04  7.41e-04    10s
  28   1.58545364e+04  1.57996900e+04  2.62e+01 1.95e-04  6.79e-04    10s
  29   1.58451316e+04  1.57916579e+04  2.44e+01 1.73e-04  6.10e-04    10s
  30   1.58395596e+04  1.57855237e+04  2.33e+01 1.64e-04  5.82e-04    11s
  31   1.58338689e+04  1.57754348e+04  2.22e+01 1.52e-04  5.41e-04    11s
  32   1.58300579e+04  1.57721398e+04  2.15e+01 1.48e-04  5.24e-04    11s
  33   1.58230863e+04  1.57636318e+04  2.02e+01 1.37e-04  4.86e-04    11s
  34   1.58204895e+04  1.57581705e+04  1.98e+01 1.31e-04  4.65e-04    12s
  35   1.58163114e+04  1.57525339e+04  1.91e+01 1.24e-04  4.42e-04    12s
  36   1.58135849e+04  1.57488064e+04  1.86e+01 1.20e-04  4.27e-04    12s
  37   1.58098548e+04  1.57422241e+04  1.80e+01 1.10e-04  3.97e-04    12s
  38   1.58062066e+04  1.57390855e+04  1.74e+01 1.06e-04  3.83e-04    13s
  39   1.58040009e+04  1.57372881e+04  1.71e+01 1.04e-04  3.74e-04    13s
  40   1.58008208e+04  1.57306353e+04  1.66e+01 9.25e-05  3.39e-04    13s
  41   1.57941421e+04  1.57265589e+04  1.55e+01 8.61e-05  3.14e-04    14s
  42   1.57917133e+04  1.57244983e+04  1.52e+01 8.22e-05  3.02e-04    14s
  43   1.57838829e+04  1.57202551e+04  1.39e+01 7.59e-05  2.78e-04    14s
  44   1.57808364e+04  1.57172683e+04  1.35e+01 7.10e-05  2.62e-04    14s
  45   1.57771018e+04  1.57135758e+04  1.29e+01 6.67e-05  2.47e-04    15s
  46   1.57748394e+04  1.57119195e+04  1.26e+01 6.69e-05  2.37e-04    15s
  47   1.57710398e+04  1.57104903e+04  1.21e+01 6.47e-05  2.28e-04    15s
  48   1.57686978e+04  1.57082439e+04  1.17e+01 6.17e-05  2.19e-04    15s
  49   1.57664463e+04  1.57060808e+04  1.14e+01 5.77e-05  2.07e-04    16s
  50   1.57639936e+04  1.57029341e+04  1.11e+01 5.03e-05  1.86e-04    16s
  51   1.57600928e+04  1.57008913e+04  1.05e+01 4.57e-05  1.73e-04    16s
  52   1.57594871e+04  1.56991658e+04  1.04e+01 4.41e-05  1.69e-04    17s
  53   1.57578948e+04  1.56979221e+04  1.02e+01 4.27e-05  1.64e-04    17s
  54   3.03651320e+06  1.89068995e+07  3.63e+07 2.50e-01  8.15e+05    17s
  55   1.28089135e+06  7.16570832e+07  9.73e+06 1.21e+02  3.53e+05    18s
  56   2.09495158e+04  7.43465909e+07  7.52e+04 7.28e-12  3.11e+03    18s
  57   1.17534241e+04  3.45621470e+07  7.22e+03 6.66e-11  3.81e+02    18s
  58   1.13066010e+04  1.87724923e+07  2.61e+03 3.00e-11  1.63e+02    18s
  59   1.16903722e+04  5.35102986e+06  1.14e+03 8.75e-12  6.12e+01    19s
  60   1.18184594e+04  1.99302556e+06  3.21e+02 2.50e-12  1.96e+01    19s
  61   1.18383672e+04  3.59359971e+05  1.12e+02 3.38e-12  4.79e+00    19s
  62   1.20561869e+04  1.03210123e+05  3.44e+01 3.50e-12  1.35e+00    19s
  63   1.34337666e+04  3.56463736e+04  2.65e+00 2.86e-12  1.84e-01    20s
  64   1.48919143e+04  2.30346060e+04  4.09e-01 1.67e-12  5.04e-02    20s
  65   1.54248745e+04  1.77214507e+04  1.01e-01 8.88e-13  1.34e-02    20s
  66   1.55740660e+04  1.57333285e+04  2.29e-02 4.28e-13  9.11e-04    21s
  67   1.56067313e+04  1.57163118e+04  8.41e-03 3.56e-13  6.25e-04    21s
  68   1.56059520e+04  1.57096351e+04  8.33e-03 3.15e-13  5.92e-04    21s
  69   1.56075434e+04  1.57045110e+04  8.19e-03 2.41e-13  5.53e-04    21s
  70   1.56093123e+04  1.57024516e+04  7.68e-03 2.18e-13  5.31e-04    22s
  71   1.56143687e+04  1.56900037e+04  6.32e-03 1.48e-13  4.31e-04    22s
  72   1.56219123e+04  1.56857192e+04  3.90e-03 1.24e-13  3.64e-04    22s
  73   1.56222808e+04  1.56831036e+04  3.80e-03 1.14e-13  3.47e-04    22s
  74   1.56246761e+04  1.56788249e+04  3.60e-03 4.90e-14  3.09e-04    23s
  75   1.56243153e+04  1.56757176e+04  3.53e-03 4.37e-14  2.93e-04    23s
  76   1.56266605e+04  1.56736936e+04  3.25e-03 3.41e-14  2.68e-04    23s
  77   1.56285995e+04  1.56714359e+04  3.02e-03 3.08e-14  2.44e-04    24s
  78   1.56297437e+04  1.56705652e+04  2.92e-03 2.88e-14  2.33e-04    24s
  79   1.56313991e+04  1.56696807e+04  2.75e-03 2.34e-14  2.18e-04    24s
  80   1.56358733e+04  1.56695330e+04  2.40e-03 2.70e-14  1.92e-04    24s
  81   1.56361735e+04  1.56692492e+04  2.38e-03 2.94e-14  1.89e-04    25s
  82   1.56363564e+04  1.56691451e+04  2.36e-03 2.75e-14  1.87e-04    25s
  83   1.56373965e+04  1.56686499e+04  2.27e-03 2.47e-14  1.78e-04    25s
  84   1.56378257e+04  1.56677679e+04  2.23e-03 2.26e-14  1.71e-04    25s
  85   1.56402263e+04  1.56670890e+04  1.99e-03 1.70e-14  1.53e-04    26s
  86   1.56407738e+04  1.56671261e+04  1.88e-03 1.63e-14  1.50e-04    26s
  87   1.56422068e+04  1.56657820e+04  1.72e-03 1.42e-14  1.34e-04    26s
  88   1.56439072e+04  1.56656387e+04  1.58e-03 1.43e-14  1.24e-04    27s
  89   1.56440530e+04  1.56655033e+04  1.57e-03 1.50e-14  1.22e-04    27s
  90   1.56450734e+04  1.56654301e+04  1.50e-03 1.45e-14  1.16e-04    27s
  91   1.56454706e+04  1.56652327e+04  1.46e-03 1.37e-14  1.13e-04    27s
  92   1.56457352e+04  1.56652027e+04  1.44e-03 1.37e-14  1.11e-04    28s
  93   1.56473914e+04  1.56649599e+04  1.31e-03 9.63e-15  1.00e-04    28s
  94   1.56473961e+04  1.56647138e+04  1.29e-03 9.59e-15  9.87e-05    28s
  95   1.56483446e+04  1.56646636e+04  1.20e-03 1.07e-14  9.30e-05    29s
  96   1.56502170e+04  1.56644936e+04  1.02e-03 1.31e-14  8.14e-05    29s
  97   1.56502967e+04  1.56645996e+04  1.01e-03 1.12e-14  8.15e-05    29s
  98   1.56512889e+04  1.56643641e+04  9.09e-04 1.09e-14  7.45e-05    29s
  99   1.56523523e+04  1.56642340e+04  8.37e-04 8.45e-15  6.77e-05    30s

Barrier performed 99 iterations in 29.61 seconds (37.51 work units)
Barrier solve interrupted - model solved by another algorithm


Solved with primal simplex
Solved in 17252 iterations and 29.61 seconds (35.85 work units)
Optimal objective  1.566316262e+04
